p cnf 20 11
e 1 2 0
a 3 4 5 6 0
e 7 8 0
a 9 0
e 10 11 0
a 12 0
e 13 0
a 14 0
e 15 16 17 0
a 18 19 20 0
6 -2 19 0
-18 -10 15 13 -1 0
-9 10 4 20 -5 0
-9 -16 -14 -8 -13 0
-8 -20 -13 -7 15 0
20 12 11 -16 18 0
3 -6 16 13 0
16 -2 -9 0
16 18 7 5 13 0
19 -16 14 10 0
9 -11 -10 5 0
